p cnf 371 933
c ind 195 198 199 252 254 255 253 218 212 213 0
c ind 215 214 242 196 197 246 243 247 211 227 0
c ind 236 205 210 220 222 224 248 216 219 207 0
c ind 217 238 251 237 226 244 250 229 228 245 0
c ind 221 225 240 204 241 206 223 249 239 232 0
c ind 235 230 233 231 234 1 0
c ret 208 209 200 201 202 203 294 295 296 297 0
c ret 298 299 300 301 302 303 304 305 306 307 0
c ret 308 309 310 311 312 313 314 315 316 317 0
c ret 318 319 320 321 322 323 324 325 326 327 0
c ret 328 329 330 331 332 333 334 335 336 337 0
c ret 338 339 340 341 342 343 344 345 346 347 0
c ret 348 349 350 351 352 353 354 355 356 357 0
c ret 358 359 360 361 362 363 364 365 366 367 0
c ret 368 369 256 257 258 259 260 261 262 263 0
c ret 264 265 266 267 268 269 270 271 272 273 0
c ret 274 275 276 277 278 279 280 281 282 283 0
c ret 284 285 286 287 288 289 290 291 292 293 0
2 -3 -144 -175 311 0
2 3 -144 -175 -311 0
-2 175 0
-2 3 311 0
-2 144 0
-2 -3 -311 0
3 4 133 0
3 4 139 0
3 4 -138 0
-3 -4 0
-3 -133 138 -139 0
4 -5 -26 0
4 19 24 -26 0
-4 26 0
-4 5 -19 0
-4 5 -24 0
5 -6 10 -13 0
-5 6 0
-5 -10 0
-5 13 0
6 7 9 0
-6 -7 0
-6 -9 0
7 -8 -308 0
7 8 308 310 0
7 -308 -310 0
7 -8 307 310 0
-7 308 -310 0
-7 8 -308 310 0
-7 -8 -307 308 0
8 -256 309 0
-8 256 0
-8 -309 0
9 -307 308 -309 0
9 -307 -308 310 0
9 -307 -308 309 0
-9 307 0
-9 308 309 0
-9 -308 -309 -310 0
10 -11 -307 0
10 11 307 0
-10 -11 307 0
-10 11 -307 0
11 12 -309 0
11 -12 256 309 0
-11 -12 -256 0
-11 12 309 0
-11 -12 -309 0
12 -308 310 0
-12 308 0
-12 -310 0
13 14 -15 17 0
13 -15 17 307 0
-13 15 0
-13 -17 0
-13 -14 -307 0
14 -308 -309 -310 0
-14 308 0
-14 309 0
-14 310 0
15 16 256 309 0
15 -256 -309 310 0
15 -16 -256 310 0
15 -256 309 -310 0
-15 256 -309 0
-15 16 -256 309 310 0
-15 -309 -310 0
-15 -16 256 0
16 307 308 0
-16 -307 0
-16 -308 0
17 307 308 0
17 -18 307 310 0
-17 -307 0
-17 -308 -310 0
-17 18 -308 0
18 256 309 0
-18 -256 0
-18 -309 0
19 -20 -22 -228 0
19 -20 22 23 0
-19 20 0
-19 22 -23 0
-19 -22 228 0
-7 -9 20 -21 0
-7 -17 20 -21 0
-20 21 0
7 -20 0
9 17 -20 0
-10 -13 21 0
10 -21 0
13 -21 0
22 299 -300 0
-22 -299 0
-22 300 0
23 -228 -283 0
23 228 283 0
-23 228 -283 0
-23 -228 283 0
20 23 24 25 0
20 24 -25 -228 0
-20 -24 0
-24 -25 228 0
-23 -24 25 0
-6 -21 25 -299 0
-25 299 0
6 -25 0
21 -25 0
26 -27 -124 -128 0
26 -27 -127 -128 0
-26 128 0
-26 27 0
-26 124 127 0
27 -28 -121 122 -246 0
27 -28 121 122 246 0
-27 -122 0
-27 121 -246 0
-27 28 0
-27 -121 246 0
28 -29 -53 -55 0
28 -29 54 -55 0
-28 55 0
-28 29 0
-28 53 -54 0
29 -32 -51 243 0
29 30 -32 -51 0
-29 51 0
-29 32 0
-29 -30 -243 0
30 -31 -298 0
-30 298 0
-30 31 0
-7 10 -15 -17 31 0
17 -31 0
7 -31 0
15 -31 0
-10 -31 0
32 33 40 44 213 0
32 33 -40 44 -213 0
-32 -33 0
-32 40 -213 0
-32 -44 0
-32 -40 213 0
33 -36 305 306 0
33 34 -36 -305 0
33 -34 -36 305 0
-33 36 0
-33 -34 -305 0
-33 34 305 -306 0
34 -35 288 0
34 35 -288 0
-34 -35 -288 0
-34 35 288 0
35 289 -290 0
-35 -289 0
-35 290 0
36 37 38 -39 0
-36 39 0
-36 -38 0
-36 -37 0
37 -263 -294 0
37 263 -264 294 -295 0
-37 -263 294 0
-37 263 264 0
-37 294 295 0
-37 263 -294 0
38 263 264 294 295 0
-38 -295 0
-38 -294 0
-38 -263 0
-38 -264 0
39 288 -289 0
39 -288 289 290 0
-39 -288 -289 0
-39 289 -290 0
-39 288 289 0
40 41 -303 0
40 -41 -268 0
-40 41 303 0
-40 -41 268 0
41 -42 43 -257 0
41 -42 43 -258 0
-41 42 0
-41 -43 0
-41 257 258 0
42 -283 -302 0
-42 283 0
-42 302 0
43 278 -279 0
-43 -278 0
-43 279 0
44 -47 305 306 0
44 45 -47 -305 0
44 -45 -47 305 0
-44 47 0
-44 -45 -305 0
-44 45 305 -306 0
45 -46 285 0
45 46 -285 0
-45 -46 -285 0
-45 46 285 0
46 286 -287 0
-46 -286 0
-46 287 0
47 48 -49 50 0
-47 -48 0
-47 49 0
-47 -50 0
48 -261 -294 0
48 261 -262 294 -295 0
-48 -261 294 0
-48 261 262 0
-48 294 295 0
-48 261 -294 0
49 285 -286 0
49 -285 286 287 0
-49 -285 -286 0
-49 286 -287 0
-49 285 286 0
50 261 262 294 295 0
-50 -295 0
-50 -294 0
-50 -261 0
-50 -262 0
-30 51 52 0
51 52 243 298 0
51 52 -243 -298 0
-51 -52 0
30 -51 243 -298 0
30 -51 -243 298 0
-5 23 52 301 0
-5 52 -228 -301 0
5 -52 0
-52 228 -301 0
-23 -52 301 0
-20 53 -284 299 -300 0
20 -53 0
-53 284 0
-53 300 0
-53 -299 0
54 -237 292 0
54 237 -238 293 0
54 237 -292 0
54 238 292 -293 0
-54 -237 -292 0
-54 237 -238 292 -293 0
-54 237 238 292 293 0
31 55 -56 120 0
55 -56 118 120 0
-55 56 0
-55 -120 0
-31 -55 -118 0
56 -57 67 -69 212 0
56 -57 -67 -69 -212 0
-56 69 0
-56 67 -212 0
-56 57 0
-56 -67 212 0
34 57 -58 61 -63 0
-34 57 -58 -61 -63 0
-57 63 0
-34 -57 61 0
-57 58 0
34 -57 -61 0
58 60 -276 0
58 -59 60 221 0
-58 -60 0
-58 -221 276 0
-58 59 276 0
59 -222 -277 0
59 222 277 0
-59 222 -277 0
-59 -222 277 0
60 -196 257 0
60 197 257 -258 0
60 -197 257 258 0
-60 -257 0
-60 196 -197 -258 0
-60 196 197 258 0
61 -62 233 0
61 62 -233 0
-61 -62 -233 0
-61 62 233 0
62 234 -235 0
-62 -234 0
-62 235 0
39 63 64 65 66 0
-39 63 64 -65 66 0
-63 -64 0
-39 -63 65 0
-63 -66 0
39 -63 -65 0
64 -204 261 0
64 205 261 -262 0
64 -205 261 262 0
-64 -261 0
-64 204 -205 -262 0
-64 204 205 262 0
65 233 -234 0
65 -233 234 235 0
-65 -233 -234 0
-65 234 -235 0
-65 233 234 0
66 -223 278 0
66 224 278 -279 0
66 -224 278 279 0
-66 -278 0
-66 223 -224 -279 0
-66 223 224 279 0
67 68 -303 0
67 -68 -267 0
-67 68 303 0
-67 -68 267 0
-42 68 257 -276 0
-42 68 257 277 0
-68 -257 0
42 -68 0
-68 276 -277 0
69 -70 -77 -89 -95 0
-69 95 0
-69 70 0
-69 89 0
-69 77 0
70 71 72 73 -76 0
70 -71 -72 73 -76 0
-70 -73 0
-70 71 -72 0
-70 76 0
-70 -71 72 0
71 -288 -289 0
71 -288 -290 0
-71 288 0
-71 289 290 0
72 -233 -234 0
72 -233 -235 0
-72 233 0
-72 234 235 0
73 74 -75 0
-73 -74 0
-73 75 0
74 -285 -286 0
74 -285 -287 0
-74 285 0
-74 286 287 0
75 -230 -231 0
75 -230 -232 0
-75 230 0
-75 231 232 0
76 -236 247 -291 302 0
76 236 -247 291 -302 0
76 236 247 291 302 0
76 -236 -247 -291 -302 0
-76 -236 291 0
-76 236 -291 0
-76 247 -302 0
-76 -247 302 0
77 -78 85 -86 -87 0
-77 87 0
-77 78 0
-77 86 0
-77 -85 0
78 79 -81 -82 0
78 -80 -81 -82 0
-78 82 0
-78 81 0
-78 -79 80 0
79 305 306 0
-79 -305 0
-79 -306 0
80 250 251 0
-80 -250 0
-80 -251 0
81 -223 261 0
81 -204 278 0
81 -204 -223 0
81 261 278 0
-81 223 -278 0
-81 204 -261 0
82 -83 -219 0
82 -83 220 0
82 -83 -84 0
-82 83 0
-82 84 219 -220 0
83 -241 -296 0
83 241 296 0
-83 241 -296 0
-83 -241 296 0
84 274 -275 0
-84 -274 0
-84 275 0
85 196 -257 0
-85 -196 0
-85 257 0
86 216 -311 -312 0
86 -271 -311 -312 0
-86 312 0
-86 311 0
-86 -216 271 0
87 88 -250 0
87 88 -251 0
-79 87 88 0
-87 -88 0
79 -87 250 251 0
88 226 280 -281 0
88 -225 280 -281 0
-88 281 0
-88 -280 0
-88 225 -226 0
49 89 90 -91 -93 0
-49 89 -90 -91 -93 0
-89 93 0
-49 -89 90 0
-89 91 0
49 -89 -90 0
90 230 -231 0
90 -230 231 232 0
-90 -230 -231 0
-90 231 -232 0
-90 230 231 0
91 -92 -206 0
91 -92 263 0
-91 92 0
-91 206 -263 0
92 -216 -272 0
92 217 271 0
92 271 -272 0
92 -216 217 0
-92 -217 272 0
-92 216 -271 0
-75 93 -94 0
74 93 -94 0
-93 94 0
-74 75 -93 0
94 -215 225 -270 280 0
94 215 -225 270 -280 0
94 215 225 270 280 0
94 -215 -225 -270 -280 0
-94 -215 270 0
-94 215 -270 0
-94 225 -280 0
-94 -225 280 0
95 -96 102 103 -104 0
-95 104 0
-95 -103 0
-95 96 0
-95 -102 0
45 96 -97 0
96 -97 -100 0
-96 97 0
-45 -96 100 0
97 -98 -99 248 303 0
97 -98 -99 -248 -303 0
-97 99 0
-97 -248 303 0
-97 98 0
-97 248 -303 0
98 -214 -305 0
98 250 269 0
98 269 -305 0
98 -214 250 0
-98 -250 305 0
-98 214 -269 0
99 -250 -269 0
99 214 305 0
99 214 -250 0
99 -269 305 0
-99 -214 269 0
-99 250 -305 0
100 -101 230 0
100 101 -230 0
-100 -101 -230 0
-100 101 230 0
101 231 -232 0
-101 -231 0
-101 232 0
102 -239 294 0
102 239 240 -294 0
102 240 294 -295 0
-102 239 -240 0
-102 -239 -294 0
-102 239 294 295 0
103 -219 274 0
103 219 220 -274 0
103 220 274 -275 0
-103 219 -220 0
-103 -219 -274 0
-103 219 274 275 0
-45 104 -105 117 0
100 104 -105 117 0
-104 105 0
-104 -117 0
45 -100 -104 0
105 106 -108 -111 0
105 -107 -108 -111 0
-105 111 0
-105 108 0
-105 -106 107 0
106 225 -226 0
-106 -225 0
-106 226 0
107 280 -281 0
-107 -280 0
-107 281 0
108 110 240 0
108 110 -239 0
108 -109 110 0
-108 -110 0
-108 109 239 -240 0
109 294 -295 0
-109 -294 0
-109 295 0
110 -206 263 264 0
110 -207 263 264 0
-110 -264 0
-110 -263 0
-110 206 207 0
111 -112 114 115 0
111 -112 114 -116 0
-111 112 0
-111 -114 0
-111 -115 116 0
112 -113 -227 -282 0
112 -113 227 282 0
-112 113 0
-112 -227 282 0
-112 227 -282 0
113 -221 272 0
113 -217 276 0
113 -217 -221 0
113 272 276 0
-113 221 -276 0
-113 217 -272 0
114 207 263 -264 0
114 -206 263 -264 0
-114 264 0
-114 -263 0
-114 206 -207 0
115 210 -211 0
-115 -210 0
-115 211 0
116 265 -266 0
-116 -265 0
-116 266 0
117 -210 265 0
117 210 211 -265 0
117 211 265 -266 0
-117 210 -211 0
-117 -210 -265 0
-117 210 265 266 0
118 119 298 0
118 249 -271 -298 0
118 -249 271 -298 0
-118 -119 298 0
-118 -249 -271 -298 0
-118 249 271 -298 0
119 -229 249 304 0
119 -249 284 -304 0
119 -229 -249 -304 0
119 249 284 304 0
-119 249 -304 0
-119 -249 304 0
-119 229 -284 0
-44 109 120 275 0
-44 109 120 -274 0
44 -120 0
-109 -120 0
-120 274 -275 0
5 121 -301 0
-121 301 0
-5 -121 0
-25 31 122 123 0
25 31 119 122 0
-31 -122 0
-25 -122 -123 0
25 -119 -122 0
123 229 -249 -272 0
123 229 249 272 0
-123 -229 0
-123 -249 272 0
-123 249 -272 0
20 25 124 -126 0
20 -25 124 -125 0
-20 -124 0
-25 -124 125 0
25 -124 126 0
125 244 245 0
-125 -244 0
-125 -245 0
126 -244 -299 0
126 244 -245 299 -300 0
126 244 245 299 300 0
-126 -244 299 0
-126 244 -245 300 0
-126 244 -299 0
-126 245 299 -300 0
-20 127 -244 -299 0
-20 127 244 245 299 0
-127 -245 299 0
-127 244 -299 0
20 -127 0
-127 -244 299 0
128 129 131 132 242 0
128 129 131 -132 -242 0
-128 -129 0
-128 -132 242 0
-128 -131 0
-128 132 -242 0
-53 129 -130 0
53 -129 0
-129 130 0
130 -237 265 0
130 237 -238 266 0
130 237 -265 0
130 238 265 -266 0
-130 -237 -265 0
-130 237 -238 265 -266 0
-130 237 238 265 266 0
-30 131 -229 0
131 -229 284 0
-131 229 0
30 -131 -284 0
30 132 -297 0
-132 297 0
-30 -132 0
61 100 133 -134 -135 0
-61 -133 0
-133 135 0
-133 134 0
-100 -133 0
134 237 -248 -249 0
134 -239 248 249 0
134 237 248 249 0
134 -239 -248 -249 0
-134 248 -249 0
-134 -248 249 0
-134 -237 239 0
-80 -125 135 -136 -137 0
125 -135 0
-135 136 0
-135 137 0
80 -135 0
136 233 234 0
-136 -233 0
-136 -234 0
137 230 231 0
-137 -230 0
-137 -231 0
138 237 -239 0
138 237 -238 240 0
138 237 238 -240 0
-138 -237 0
-138 238 239 240 0
-138 -238 239 -240 0
139 -140 -141 -142 -143 0
-139 143 0
-139 140 0
-139 142 0
-139 141 0
140 225 226 227 228 0
-140 -228 0
-140 -227 0
-140 -225 0
-140 -226 0
141 221 222 223 224 0
-141 -224 0
-141 -223 0
-141 -221 0
-141 -222 0
142 243 246 247 312 0
-142 -312 0
-142 -247 0
-142 -243 0
-142 -246 0
143 229 236 241 242 0
-143 -242 0
-143 -241 0
-143 -229 0
-143 -236 0
144 -145 -168 -169 -173 0
-144 173 0
-144 145 0
-144 169 0
-144 168 0
145 -146 -151 -154 -157 0
-145 157 0
-145 146 0
-145 154 0
-145 151 0
146 -147 -150 252 307 0
146 -147 -150 -252 -307 0
-146 150 0
-146 -252 307 0
-146 147 0
-146 252 -307 0
147 148 149 211 266 0
147 148 149 -211 -266 0
-147 -148 0
-147 -211 266 0
-147 -149 0
-147 211 -266 0
148 -251 306 0
-148 251 0
-148 -306 0
149 231 -286 0
-149 -231 0
-149 286 0
150 -234 -273 0
150 218 289 0
150 218 -234 0
150 -273 289 0
-150 -218 273 0
-150 234 -289 0
151 152 153 255 310 0
151 152 153 -255 -310 0
-151 -152 0
-151 -255 310 0
-151 -153 0
-151 255 -310 0
152 -240 295 0
-152 240 0
-152 -295 0
153 -220 275 0
-153 220 0
-153 -275 0
154 155 156 235 290 0
154 155 156 -235 -290 0
-154 -155 0
-154 -235 290 0
-154 -156 0
-154 235 -290 0
155 251 -306 0
-155 -251 0
-155 306 0
156 -231 286 0
-156 231 0
-156 -286 0
157 -158 -163 -166 -167 0
-157 167 0
-157 158 0
-157 166 0
-157 163 0
158 -159 -160 -161 0
-158 159 0
-158 160 0
-158 161 0
159 -232 273 0
159 -218 287 0
159 -218 -232 0
159 273 287 0
-159 232 -287 0
-159 218 -273 0
160 195 221 0
160 -256 -276 0
160 195 -276 0
160 221 -256 0
-160 -195 256 0
-160 -221 276 0
85 161 162 197 258 0
85 161 162 -197 -258 0
-85 -161 0
-161 -197 258 0
-161 -162 0
-161 197 -258 0
162 -216 271 0
-162 216 0
-162 -271 0
163 164 165 199 260 0
163 164 165 -199 -260 0
-163 -164 0
-163 -199 260 0
-163 -165 0
-163 199 -260 0
164 -229 284 0
-164 229 0
-164 -284 0
165 -234 289 0
-165 234 0
-165 -289 0
166 -195 -278 0
166 223 256 0
166 256 -278 0
166 -195 223 0
-166 -223 278 0
-166 195 -256 0
167 204 206 0
167 -261 -263 0
167 204 -263 0
167 206 -261 0
-167 -204 261 0
-167 -206 263 0
-76 -91 -94 168 0
76 -168 0
91 -168 0
94 -168 0
169 -170 -171 230 285 0
169 -170 -171 -230 -285 0
-169 171 0
-169 -230 285 0
-169 170 0
-169 230 -285 0
170 196 254 0
170 -257 -309 0
170 196 -309 0
170 254 -257 0
-170 -196 257 0
-170 -254 309 0
171 -172 -213 -268 0
171 -172 213 268 0
-171 172 0
-171 -213 268 0
-171 213 -268 0
172 -220 -287 0
172 232 275 0
172 275 -287 0
172 -220 232 0
-172 -232 287 0
-172 220 -275 0
-119 173 -174 207 0
-119 173 -174 -264 0
-173 174 0
119 -173 0
-173 -207 264 0
174 -254 295 0
174 -240 309 0
174 -240 -254 0
174 295 309 0
-174 254 -309 0
-174 240 -295 0
175 -176 -182 -185 -189 0
-175 189 0
-175 176 0
-175 185 0
-175 182 0
-97 176 -177 -180 -181 0
-176 181 0
97 -176 0
-176 180 0
-176 177 0
177 178 -179 242 297 0
177 178 -179 -242 -297 0
-177 -178 0
-177 242 -297 0
-177 179 0
-177 -242 297 0
178 212 -267 0
178 -212 267 0
-178 -212 -267 0
-178 212 267 0
179 -198 226 -259 281 0
179 198 -226 259 -281 0
179 198 226 259 281 0
179 -198 -226 -259 -281 0
-179 -198 259 0
-179 198 -259 0
-179 226 -281 0
-179 -226 281 0
180 -233 253 -288 308 0
180 233 -253 288 -308 0
180 233 253 288 308 0
180 -233 -253 -288 -308 0
-180 -233 288 0
-180 233 -288 0
-180 253 -308 0
-180 -253 308 0
181 -237 246 -292 301 0
181 237 -246 292 -301 0
181 237 246 292 301 0
181 -237 -246 -292 -301 0
-181 -237 292 0
-181 237 -292 0
-181 246 -301 0
-181 -246 301 0
-81 -83 182 -183 -184 0
-182 184 0
81 -182 0
-182 183 0
83 -182 0
183 -239 -294 0
183 239 294 0
-183 239 -294 0
-183 -239 294 0
184 -219 -274 0
184 219 274 0
-184 219 -274 0
-184 -219 274 0
185 -186 -187 210 265 0
185 -186 -187 -210 -265 0
-185 187 0
-185 -210 265 0
-185 186 0
-185 210 -265 0
186 -238 -293 0
186 238 293 0
-186 238 -293 0
-186 -238 293 0
187 -188 -207 -312 0
187 -188 264 -312 0
-187 188 0
-187 312 0
-187 207 -264 0
188 -243 -298 0
188 243 298 0
-188 243 -298 0
-188 -243 298 0
-23 -112 189 -190 -191 0
-189 191 0
23 -189 0
112 -189 0
-189 190 0
190 -205 -262 0
190 205 262 0
-190 205 -262 0
-190 -205 262 0
-59 191 -192 -193 -194 0
-191 194 0
59 -191 0
-191 193 0
-191 192 0
192 -224 -279 0
192 224 279 0
-192 224 -279 0
-192 -224 279 0
193 -244 -299 0
193 244 299 0
-193 244 -299 0
-193 -244 299 0
194 -245 -300 0
194 245 300 0
-194 245 -300 0
-194 -245 300 0
1 2 0
-1 -2 0
370 0

